************************************************************************
file with basedata            : mm52_.bas
initial value random generator: 2026569778
************************************************************************
projects                      :  1
jobs (incl. supersource/sink ):  12
horizon                       :  68
RESOURCES
  - renewable                 :  2   R
  - nonrenewable              :  2   N
  - doubly constrained        :  0   D
************************************************************************
PROJECT INFORMATION:
pronr.  #jobs rel.date duedate tardcost  MPM-Time
    1     10      0       18        0       18
************************************************************************
PRECEDENCE RELATIONS:
jobnr.    #modes  #successors   successors
   0        1          3           1   2   3
   1        3          2           5   8
   2        3          2           5   8
   3        3          3           4   9  10
   4        3          1           8
   5        3          2           6  10
   6        3          1           7
   7        3          1           9
   8        3          1          11
   9        3          1          11
  10        3          1          11
  11        1          0        
************************************************************************
REQUESTS/DURATIONS:
jobnr. mode duration  R 1  R 2  R 3  R 4  E(W 1)
------------------------------------------------------------------------
  0      1     0       0    0    0    0     0
  1      1     4       9    5    8    0    88
  2      1     4       7    6    0    9    88
  3      1     3       9    5    7    0    63
  4      1     3       7    5    0    7    57
  5      1     5       7    9    9    0    125
  6      1     3       5    5    0   10    60
  7      1     1       5    6    0    3    14
  8      1     1       8    4    0    4    16
  9      1     5       4    5    0    6    75
 10      1     3       3    7    6    0    48
 11      1     0       0    0    0    0     0
************************************************************************
RESOURCEAVAILABILITIES:
  R 1
   156
************************************************************************
RESOURCE LIMITS:
jobnr.  l(R 1)  u(R 1)
------------------------------------------------------------------------
  0        0       0
  1       12      22
  2       12      22
  3       12      21
  4       11      19
  5       14      25
  6       11      20
  7        8      14
  8        8      16
  9        8      15
 10        9      16
 11        0       0
************************************************************************
SCENARIOS:
------------------------------------------------------------------------
RESOURCE k = 1
s = 1: (0, 88, 110, 101, 68, 118, 53, 15, 13, 55, 51, 0)
s = 2: (0, 78, 106, 49, 93, 143, 46, 14, 13, 73, 32, 0)
s = 3: (0, 102, 71, 63, 38, 82, 53, 10, 19, 80, 65, 0)
s = 4: (0, 77, 147, 69, 41, 116, 56, 16, 29, 55, 32, 0)
s = 5: (0, 150, 131, 74, 66, 216, 59, 11, 12, 69, 48, 0)
s = 6: (0, 137, 86, 79, 44, 206, 49, 9, 13, 66, 38, 0)
s = 7: (0, 100, 124, 50, 38, 120, 50, 26, 16, 76, 44, 0)
s = 8: (0, 80, 127, 114, 39, 175, 57, 11, 17, 78, 34, 0)
s = 9: (0, 98, 95, 57, 57, 186, 48, 15, 16, 133, 71, 0)
s = 10: (0, 80, 75, 70, 51, 137, 47, 9, 15, 58, 55, 0)
s = 11: (0, 66, 113, 73, 56, 101, 85, 14, 17, 98, 49, 0)
s = 12: (0, 88, 96, 97, 47, 142, 80, 16, 29, 62, 59, 0)
s = 13: (0, 60, 60, 66, 40, 74, 39, 12, 13, 80, 33, 0)
s = 14: (0, 65, 103, 53, 36, 155, 44, 17, 23, 67, 53, 0)
s = 15: (0, 52, 98, 46, 53, 83, 31, 15, 14, 47, 62, 0)
s = 16: (0, 61, 115, 85, 56, 128, 50, 16, 29, 42, 31, 0)
s = 17: (0, 82, 50, 68, 60, 152, 78, 8, 19, 62, 57, 0)
s = 18: (0, 99, 73, 40, 55, 85, 45, 12, 16, 105, 65, 0)
s = 19: (0, 96, 126, 60, 54, 132, 76, 8, 15, 88, 63, 0)
s = 20: (0, 69, 89, 41, 55, 79, 56, 18, 20, 88, 45, 0)
s = 21: (0, 55, 59, 53, 70, 135, 76, 16, 13, 83, 44, 0)
s = 22: (0, 63, 75, 60, 95, 107, 66, 16, 12, 125, 48, 0)
s = 23: (0, 69, 127, 59, 51, 125, 39, 11, 15, 100, 55, 0)
s = 24: (0, 91, 75, 64, 57, 121, 52, 14, 19, 62, 41, 0)
s = 25: (0, 121, 85, 50, 49, 135, 87, 20, 11, 60, 32, 0)
s = 26: (0, 52, 144, 75, 48, 120, 40, 13, 20, 52, 66, 0)
s = 27: (0, 122, 109, 103, 42, 124, 80, 10, 15, 50, 32, 0)
s = 28: (0, 74, 74, 54, 71, 100, 84, 19, 18, 78, 31, 0)
s = 29: (0, 80, 84, 57, 43, 138, 81, 15, 21, 56, 43, 0)
s = 30: (0, 70, 81, 77, 59, 130, 44, 12, 11, 124, 55, 0)
s = 31: (0, 80, 84, 75, 63, 132, 43, 25, 14, 50, 63, 0)
s = 32: (0, 74, 127, 47, 39, 95, 53, 14, 10, 95, 42, 0)
s = 33: (0, 117, 95, 62, 96, 103, 45, 17, 10, 99, 65, 0)
s = 34: (0, 115, 137, 54, 75, 117, 63, 18, 16, 98, 46, 0)
s = 35: (0, 110, 65, 97, 60, 134, 44, 12, 20, 69, 35, 0)
s = 36: (0, 122, 70, 83, 37, 144, 45, 11, 18, 67, 41, 0)
s = 37: (0, 85, 67, 87, 45, 102, 69, 16, 11, 85, 45, 0)
s = 38: (0, 151, 123, 51, 56, 90, 53, 19, 10, 86, 68, 0)
s = 39: (0, 60, 64, 51, 54, 131, 64, 12, 14, 70, 62, 0)
s = 40: (0, 121, 91, 95, 79, 118, 53, 12, 24, 103, 49, 0)
s = 41: (0, 140, 117, 51, 64, 149, 60, 15, 15, 124, 73, 0)
s = 42: (0, 58, 70, 74, 70, 145, 50, 11, 11, 80, 57, 0)
s = 43: (0, 78, 115, 53, 63, 139, 44, 9, 14, 72, 38, 0)
s = 44: (0, 73, 64, 86, 56, 196, 68, 18, 13, 83, 74, 0)
s = 45: (0, 100, 102, 70, 60, 80, 84, 9, 13, 63, 28, 0)
s = 46: (0, 90, 65, 38, 66, 141, 47, 11, 24, 82, 62, 0)
s = 47: (0, 48, 131, 57, 72, 124, 78, 12, 25, 82, 33, 0)
s = 48: (0, 104, 69, 51, 57, 110, 48, 15, 15, 97, 60, 0)
s = 49: (0, 52, 103, 77, 41, 197, 44, 13, 27, 47, 49, 0)
s = 50: (0, 104, 75, 48, 47, 85, 80, 21, 27, 60, 43, 0)
s = 51: (0, 116, 120, 99, 41, 211, 44, 14, 11, 70, 38, 0)
s = 52: (0, 74, 106, 84, 68, 156, 98, 15, 10, 76, 35, 0)
s = 53: (0, 113, 118, 76, 38, 105, 77, 20, 24, 105, 64, 0)
s = 54: (0, 94, 67, 64, 70, 128, 64, 12, 11, 93, 72, 0)
s = 55: (0, 113, 120, 58, 65, 138, 61, 12, 20, 101, 41, 0)
s = 56: (0, 102, 74, 81, 57, 135, 34, 17, 20, 95, 36, 0)
s = 57: (0, 138, 95, 69, 57, 129, 57, 16, 22, 88, 50, 0)
s = 58: (0, 50, 122, 105, 45, 154, 61, 13, 16, 67, 47, 0)
s = 59: (0, 117, 110, 38, 85, 111, 44, 18, 13, 59, 60, 0)
s = 60: (0, 79, 48, 41, 75, 161, 37, 16, 15, 54, 63, 0)
s = 61: (0, 105, 129, 70, 54, 107, 69, 16, 17, 46, 48, 0)
s = 62: (0, 110, 89, 52, 57, 131, 43, 10, 10, 45, 44, 0)
s = 63: (0, 75, 81, 41, 85, 90, 63, 17, 19, 59, 31, 0)
s = 64: (0, 61, 57, 53, 42, 99, 45, 16, 23, 58, 41, 0)
s = 65: (0, 80, 68, 35, 74, 110, 73, 10, 21, 56, 46, 0)
s = 66: (0, 70, 62, 80, 98, 110, 66, 13, 12, 80, 55, 0)
s = 67: (0, 93, 84, 59, 61, 132, 57, 17, 14, 109, 80, 0)
s = 68: (0, 92, 53, 39, 70, 179, 44, 11, 16, 100, 49, 0)
s = 69: (0, 81, 134, 61, 56, 73, 62, 11, 16, 70, 56, 0)
s = 70: (0, 115, 71, 57, 43, 96, 50, 15, 13, 132, 67, 0)
s = 71: (0, 59, 162, 57, 79, 134, 52, 15, 17, 47, 28, 0)
s = 72: (0, 94, 68, 66, 59, 145, 60, 13, 20, 105, 38, 0)
s = 73: (0, 130, 97, 55, 48, 126, 43, 13, 16, 58, 59, 0)
s = 74: (0, 126, 105, 76, 50, 127, 80, 13, 14, 49, 32, 0)
s = 75: (0, 112, 98, 39, 79, 133, 42, 16, 27, 78, 53, 0)
s = 76: (0, 90, 88, 46, 57, 116, 55, 22, 10, 94, 54, 0)
s = 77: (0, 71, 95, 92, 37, 94, 47, 16, 15, 106, 34, 0)
s = 78: (0, 50, 98, 43, 50, 144, 63, 13, 20, 86, 48, 0)
s = 79: (0, 129, 123, 83, 70, 218, 62, 16, 12, 63, 26, 0)
s = 80: (0, 51, 67, 98, 35, 196, 57, 13, 20, 87, 41, 0)
s = 81: (0, 109, 125, 100, 77, 85, 46, 18, 29, 83, 46, 0)
s = 82: (0, 65, 81, 82, 52, 110, 52, 13, 21, 124, 51, 0)
s = 83: (0, 75, 66, 102, 50, 107, 43, 16, 13, 61, 57, 0)
s = 84: (0, 61, 64, 46, 53, 115, 72, 13, 12, 52, 50, 0)
s = 85: (0, 83, 107, 103, 66, 123, 62, 20, 23, 85, 42, 0)
s = 86: (0, 141, 109, 75, 101, 116, 45, 15, 21, 111, 62, 0)
s = 87: (0, 97, 117, 48, 54, 132, 44, 16, 19, 43, 58, 0)
s = 88: (0, 63, 98, 59, 51, 98, 44, 11, 12, 79, 67, 0)
s = 89: (0, 75, 74, 82, 51, 84, 52, 19, 19, 135, 31, 0)
s = 90: (0, 60, 101, 42, 42, 168, 41, 16, 17, 94, 39, 0)
s = 91: (0, 62, 142, 93, 68, 66, 40, 13, 10, 101, 54, 0)
s = 92: (0, 94, 119, 81, 57, 102, 42, 9, 14, 65, 39, 0)
s = 93: (0, 113, 82, 84, 65, 93, 67, 13, 13, 83, 30, 0)
s = 94: (0, 112, 74, 57, 82, 186, 43, 10, 12, 71, 36, 0)
s = 95: (0, 147, 92, 43, 47, 119, 81, 24, 14, 123, 28, 0)
s = 96: (0, 93, 85, 72, 46, 137, 78, 11, 11, 50, 37, 0)
s = 97: (0, 51, 111, 48, 56, 129, 73, 13, 16, 89, 52, 0)
s = 98: (0, 108, 84, 53, 40, 93, 52, 14, 18, 58, 61, 0)
s = 99: (0, 74, 83, 49, 57, 195, 90, 10, 18, 105, 57, 0)
s = 100: (0, 47, 65, 73, 63, 106, 67, 13, 11, 63, 63, 0)
s = 101: (0, 68, 52, 40, 42, 154, 50, 22, 13, 77, 33, 0)
s = 102: (0, 99, 92, 64, 60, 142, 63, 13, 13, 86, 70, 0)
s = 103: (0, 127, 84, 62, 73, 139, 54, 21, 16, 61, 40, 0)
s = 104: (0, 93, 104, 43, 67, 78, 50, 12, 14, 55, 73, 0)
s = 105: (0, 123, 94, 68, 62, 120, 55, 9, 21, 64, 36, 0)
s = 106: (0, 77, 51, 54, 85, 82, 53, 10, 17, 69, 52, 0)
s = 107: (0, 107, 90, 52, 43, 173, 67, 10, 17, 53, 58, 0)
s = 108: (0, 124, 131, 59, 92, 101, 69, 10, 30, 80, 52, 0)
s = 109: (0, 110, 68, 62, 53, 114, 65, 16, 12, 64, 33, 0)
s = 110: (0, 78, 68, 70, 56, 153, 42, 8, 18, 119, 59, 0)
s = 111: (0, 86, 116, 36, 43, 102, 50, 13, 14, 64, 67, 0)
s = 112: (0, 93, 61, 66, 40, 215, 50, 12, 16, 87, 34, 0)
s = 113: (0, 99, 83, 80, 44, 82, 57, 14, 20, 51, 37, 0)
s = 114: (0, 115, 59, 74, 44, 84, 72, 10, 14, 106, 47, 0)
s = 115: (0, 65, 98, 99, 32, 149, 35, 13, 21, 50, 59, 0)
s = 116: (0, 104, 51, 98, 47, 171, 49, 10, 14, 45, 56, 0)
s = 117: (0, 72, 85, 42, 47, 72, 32, 12, 22, 108, 37, 0)
s = 118: (0, 101, 67, 36, 47, 120, 77, 14, 16, 90, 67, 0)
s = 119: (0, 104, 96, 78, 69, 120, 60, 15, 16, 92, 43, 0)
s = 120: (0, 65, 67, 98, 75, 72, 33, 15, 12, 80, 54, 0)
s = 121: (0, 103, 75, 66, 85, 112, 64, 16, 19, 68, 43, 0)
s = 122: (0, 55, 67, 85, 67, 162, 62, 17, 21, 102, 25, 0)
s = 123: (0, 89, 78, 35, 63, 86, 48, 19, 14, 53, 40, 0)
s = 124: (0, 63, 102, 49, 40, 113, 53, 9, 15, 69, 46, 0)
s = 125: (0, 109, 75, 69, 64, 126, 72, 15, 11, 49, 55, 0)
s = 126: (0, 99, 72, 62, 46, 85, 75, 13, 13, 64, 37, 0)
s = 127: (0, 55, 48, 42, 45, 147, 51, 13, 18, 85, 54, 0)
s = 128: (0, 91, 67, 39, 33, 177, 46, 19, 13, 62, 67, 0)
s = 129: (0, 130, 122, 36, 71, 105, 87, 14, 14, 65, 58, 0)
s = 130: (0, 73, 60, 49, 49, 86, 73, 11, 10, 60, 78, 0)
s = 131: (0, 85, 126, 88, 41, 121, 90, 11, 18, 62, 53, 0)
s = 132: (0, 67, 104, 61, 64, 104, 81, 18, 15, 53, 45, 0)
s = 133: (0, 84, 89, 64, 45, 105, 81, 19, 15, 42, 65, 0)
s = 134: (0, 91, 119, 67, 84, 138, 108, 16, 16, 78, 46, 0)
s = 135: (0, 78, 100, 44, 52, 152, 44, 9, 12, 59, 36, 0)
s = 136: (0, 104, 55, 68, 41, 69, 68, 11, 15, 53, 74, 0)
s = 137: (0, 121, 97, 90, 53, 170, 51, 19, 18, 48, 39, 0)
s = 138: (0, 124, 125, 75, 80, 77, 50, 15, 17, 60, 42, 0)
s = 139: (0, 146, 104, 45, 42, 149, 58, 14, 15, 110, 42, 0)
s = 140: (0, 115, 50, 41, 73, 124, 38, 11, 18, 53, 32, 0)
s = 141: (0, 132, 124, 91, 66, 70, 51, 16, 12, 51, 61, 0)
s = 142: (0, 92, 74, 60, 43, 130, 38, 11, 14, 95, 50, 0)
s = 143: (0, 98, 59, 81, 36, 80, 66, 18, 9, 66, 43, 0)
s = 144: (0, 97, 82, 75, 51, 106, 50, 14, 14, 42, 58, 0)
s = 145: (0, 71, 118, 49, 102, 106, 64, 19, 22, 44, 41, 0)
s = 146: (0, 67, 62, 92, 95, 73, 57, 16, 17, 54, 41, 0)
s = 147: (0, 68, 64, 63, 55, 102, 85, 22, 15, 90, 59, 0)
s = 148: (0, 105, 99, 57, 85, 156, 62, 16, 18, 80, 39, 0)
s = 149: (0, 113, 78, 53, 32, 110, 33, 12, 11, 69, 49, 0)
s = 150: (0, 61, 52, 99, 52, 82, 50, 15, 19, 86, 43, 0)
s = 151: (0, 73, 57, 55, 54, 89, 70, 14, 20, 103, 65, 0)
s = 152: (0, 87, 47, 105, 102, 180, 68, 16, 14, 53, 40, 0)
s = 153: (0, 64, 98, 83, 46, 168, 42, 10, 19, 64, 47, 0)
s = 154: (0, 123, 77, 44, 56, 98, 70, 10, 23, 81, 49, 0)
s = 155: (0, 92, 59, 37, 50, 145, 61, 23, 25, 58, 45, 0)
s = 156: (0, 66, 115, 41, 56, 88, 98, 12, 15, 97, 28, 0)
s = 157: (0, 93, 160, 86, 59, 129, 54, 21, 11, 45, 34, 0)
s = 158: (0, 81, 66, 43, 34, 111, 80, 19, 17, 75, 29, 0)
s = 159: (0, 59, 70, 42, 69, 126, 89, 17, 27, 109, 51, 0)
s = 160: (0, 70, 124, 65, 53, 97, 41, 16, 15, 82, 30, 0)
s = 161: (0, 69, 75, 84, 76, 129, 39, 18, 19, 74, 61, 0)
s = 162: (0, 72, 81, 57, 55, 191, 54, 11, 12, 45, 53, 0)
s = 163: (0, 135, 114, 79, 65, 99, 38, 10, 16, 101, 49, 0)
s = 164: (0, 94, 98, 41, 75, 124, 43, 15, 15, 49, 58, 0)
s = 165: (0, 54, 83, 62, 55, 124, 44, 9, 18, 81, 50, 0)
s = 166: (0, 135, 56, 83, 31, 173, 50, 15, 14, 66, 29, 0)
s = 167: (0, 103, 122, 85, 81, 234, 106, 23, 14, 73, 28, 0)
s = 168: (0, 60, 91, 53, 60, 100, 47, 10, 16, 40, 41, 0)
s = 169: (0, 95, 82, 51, 59, 148, 38, 17, 17, 45, 37, 0)
s = 170: (0, 95, 81, 71, 75, 133, 50, 11, 11, 61, 50, 0)
s = 171: (0, 102, 111, 57, 31, 120, 82, 17, 22, 65, 36, 0)
s = 172: (0, 48, 78, 42, 49, 124, 65, 13, 15, 67, 41, 0)
s = 173: (0, 66, 87, 74, 67, 97, 99, 13, 21, 66, 34, 0)
s = 174: (0, 94, 90, 48, 43, 97, 57, 19, 14, 70, 45, 0)
s = 175: (0, 81, 65, 60, 41, 85, 81, 12, 12, 118, 33, 0)
s = 176: (0, 125, 77, 66, 88, 191, 60, 17, 20, 42, 41, 0)
s = 177: (0, 78, 61, 58, 39, 162, 56, 23, 11, 66, 36, 0)
s = 178: (0, 64, 112, 63, 69, 123, 96, 16, 21, 95, 50, 0)
s = 179: (0, 95, 73, 48, 108, 128, 63, 15, 15, 64, 48, 0)
s = 180: (0, 111, 96, 60, 49, 139, 42, 10, 20, 55, 60, 0)
s = 181: (0, 141, 49, 44, 61, 85, 55, 15, 14, 87, 49, 0)
s = 182: (0, 154, 64, 48, 48, 114, 68, 9, 18, 91, 54, 0)
s = 183: (0, 78, 98, 80, 97, 184, 56, 25, 20, 63, 60, 0)
s = 184: (0, 59, 77, 64, 50, 201, 71, 17, 10, 69, 25, 0)
s = 185: (0, 86, 84, 43, 61, 124, 66, 17, 14, 56, 35, 0)
s = 186: (0, 83, 84, 78, 54, 99, 39, 13, 12, 52, 63, 0)
s = 187: (0, 109, 152, 34, 86, 152, 40, 12, 16, 83, 60, 0)
s = 188: (0, 66, 61, 80, 59, 71, 54, 15, 21, 111, 40, 0)
s = 189: (0, 92, 95, 90, 39, 175, 47, 8, 20, 48, 56, 0)
s = 190: (0, 115, 124, 70, 71, 177, 55, 16, 14, 82, 68, 0)
s = 191: (0, 67, 67, 66, 46, 126, 48, 16, 20, 63, 65, 0)
s = 192: (0, 61, 74, 68, 82, 93, 41, 16, 17, 52, 29, 0)
s = 193: (0, 76, 125, 44, 38, 192, 36, 18, 12, 70, 31, 0)
s = 194: (0, 67, 52, 65, 54, 121, 47, 11, 16, 53, 37, 0)
s = 195: (0, 90, 94, 50, 59, 67, 72, 11, 13, 89, 50, 0)
s = 196: (0, 108, 72, 57, 50, 125, 62, 13, 16, 114, 50, 0)
s = 197: (0, 86, 120, 52, 45, 80, 62, 12, 25, 51, 44, 0)
s = 198: (0, 81, 48, 39, 82, 108, 44, 15, 14, 50, 66, 0)
s = 199: (0, 99, 112, 68, 81, 82, 75, 17, 17, 64, 63, 0)
s = 200: (0, 95, 93, 43, 37, 172, 82, 21, 13, 68, 52, 0)
************************************************************************
ES/LS-VALUES:
jobnr.   ES(i)    LS(i)
------------------------------------------------------------------------
  0        0        0
  1        0       34
  2        0       33
  3        0       53
  4        5       60
  5        7       41
  6       16       51
  7       21       57
  8       10       66
  9       22       59
 10       16       63
 11       31       68
************************************************************************
BIG-M-VALUES:
M1 = 17, M2 = 234
************************************************************************
